NAME: Tnm121
COMMENT: Recalculated optimal tour for Tnm121, using LKH got a tour of length 1755689.0
TYPE: TOUR
DIMENSION: 121
TOUR_SECTION:
1
96
93
90
87
84
101
104
81
78
75
72
69
66
63
60
57
54
51
48
45
42
39
36
33
30
27
24
21
18
112
109
106
103
100
15
12
9
6
3
95
92
97
89
86
83
80
77
74
71
68
65
62
59
56
53
50
47
44
41
38
35
32
29
26
23
20
17
14
11
8
5
2
94
91
88
99
102
85
82
79
76
73
70
67
64
61
58
55
105
108
111
114
117
120
115
118
121
119
116
113
110
107
52
49
46
43
40
37
34
31
28
25
22
19
16
13
10
7
4
98 
-1
EOF
